
Log started (V11.0.0) Wed Apr 16 07:24:54 2008

Tried aggregator 1 time.
Reduced MIP has 130 rows, 3001 columns, and 6030 nonzeros.
Presolve time =    0.03 sec.
Clique table members: 100.
MIP emphasis: balance optimality and feasibility.
MIP search method: dynamic search.
Parallel mode: none, using 1 thread.
Root relaxation solution time =    0.06 sec.

        Nodes                                         Cuts/
   Node  Left     Objective  IInf  Best Integer     Best Node    ItCnt     Gap

*     0+    0                         5449.0000       41.3875      482   99.24%
*     0+    0                           52.0000       41.3875      482   20.41%
      0     0       42.0000    47       52.0000      Fract: 5      488   19.23%
*     0+    0                           51.0000       42.0000      488   17.65%
      0     0       42.0000    45       51.0000   Impl Bds: 1      491   17.65%
*     0+    0                           50.0000       42.0000      491   16.00%
*     0+    0                           49.0000       42.0000      491   14.29%

Repeating presolve.
Tried aggregator 1 time.
MIP Presolve eliminated 0 rows and 1692 columns.
MIP Presolve modified 100 coefficients.
Reduced MIP has 130 rows, 1309 columns, and 2646 nonzeros.
Tried aggregator 1 time.
Represolve time =    0.05 sec.
Clique table members: 305.
MIP emphasis: balance optimality and feasibility.
MIP search method: dynamic search.
Parallel mode: none, using 1 thread.
Root relaxation solution time =    0.03 sec.

        Nodes                                         Cuts/
   Node  Left     Objective  IInf  Best Integer     Best Node    ItCnt     Gap

      0     0       42.0000    57       49.0000       42.0000      392   14.29%
      0     2       42.0000    57       49.0000       42.0000      392   14.29%
    100    88       45.0000    48       49.0000       42.0000     1952   14.29%
    200   174       48.0000    42       49.0000       42.0000     3473   14.29%
*   220+  165                           48.0000       42.0000     3913   12.50%
    300   241       44.0000    41       48.0000       42.0000     5072   12.50%
    400   324       46.0000    37       48.0000       42.0000     6846   12.50%
*   491+  359                           47.0000       42.0000     8538   10.64%
*   494+  241                           46.0000       44.0000    10107    4.35%
    500   243       44.0000    47       46.0000       44.0000    10214    4.35%
    600   261       44.0000    83       46.0000       44.0000    13158    4.35%
    700   194        cutoff             46.0000       44.0000    27617    4.35%
*   732    71      integral     0       45.0000       44.0000    29519    2.22%

Cover cuts applied:  184
Mixed integer rounding cuts applied:  25
Zero-half cuts applied:  2
Gomory fractional cuts applied:  12

Solution pool: 9 solutions saved.

MIP - Integer optimal solution:  Objective = 4.5000000000e+001
Solution time =   11.20 sec.  Iterations = 54378  Nodes = 772 (17)


Incumbent solution
Variable Name           Solution Value
Cmax                         45.000000
X_1_6                         1.000000
X_2_4                         1.000000
X_3_13                        1.000000
X_4_17                        1.000000
X_5_13                        1.000000
X_6_26                        1.000000
X_7_30                        1.000000
X_8_30                        1.000000
X_9_7                         1.000000
X_10_6                        1.000000
X_11_25                       1.000000
X_12_30                       1.000000
X_13_12                       1.000000
X_14_10                       1.000000
X_15_12                       1.000000
X_16_16                       1.000000
X_17_28                       1.000000
X_18_1                        1.000000
X_19_15                       1.000000
X_20_9                        1.000000
X_21_10                       1.000000
X_22_23                       1.000000
X_23_19                       1.000000
X_24_27                       1.000000
X_25_17                       1.000000
X_26_20                       1.000000
X_27_29                       1.000000
X_28_8                        1.000000
X_29_11                       1.000000
X_30_23                       1.000000
X_31_11                       1.000000
X_32_19                       1.000000
X_33_14                       1.000000
X_34_24                       1.000000
X_35_18                       1.000000
X_36_1                        1.000000
X_37_29                       1.000000
X_38_30                       1.000000
X_39_3                        1.000000
X_40_22                       1.000000
X_41_24                       1.000000
X_42_1                        1.000000
X_43_14                       1.000000
X_44_9                        1.000000
X_45_18                       1.000000
X_46_7                        1.000000
X_47_6                        1.000000
X_48_3                        1.000000
X_49_11                       1.000000
X_50_28                       1.000000
X_51_15                       1.000000
X_52_5                        1.000000
X_53_24                       1.000000
X_54_18                       1.000000
X_55_16                       1.000000
X_56_3                        1.000000
X_57_2                        1.000000
X_58_6                        1.000000
X_59_26                       1.000000
X_60_29                       1.000000
X_61_15                       1.000000
X_62_24                       1.000000
X_63_28                       1.000000
X_64_2                        1.000000
X_65_27                       1.000000
X_66_26                       1.000000
X_67_4                        1.000000
X_68_15                       1.000000
X_69_21                       1.000000
X_70_22                       1.000000
X_71_23                       1.000000
X_72_18                       1.000000
X_73_14                       1.000000
X_74_9                        1.000000
X_75_22                       1.000000
X_76_27                       1.000000
X_77_5                        1.000000
X_78_25                       1.000000
X_79_19                       1.000000
X_80_2                        1.000000
X_81_16                       1.000000
X_82_4                        1.000000
X_83_10                       1.000000
X_84_16                       1.000000
X_85_25                       1.000000
X_86_5                        1.000000
X_87_8                        1.000000
X_88_21                       1.000000
X_89_7                        1.000000
X_90_29                       1.000000
X_91_22                       1.000000
X_92_17                       1.000000
X_93_21                       1.000000
X_94_11                       1.000000
X_95_13                       1.000000
X_96_23                       1.000000
X_97_20                       1.000000
X_98_20                       1.000000
X_99_8                        1.000000
X_100_8                       1.000000
All other variables in the range 1-3001 are 0.
